Maximize
  - 3.712254850375 edge_0_1_0_0 - 4.311110776896 edge_0_2_0_0
   - 3.6906 edge_0_3_0_0 - 3.9918359682416 edge_0_6_0_0
   - 1.3705572999968 edge_0_7_0_0 - 4.721542353275599 edge_0_10_0_0
   - 2.3162132080889 edge_0_11_0_0 - 4.4010453004596 edge_0_13_0_0
   - 2.86709 edge_0_14_0_0 - 5.093872375140601 edge_0_21_0_0
   + 0.7733580279 edge_1_3_0_0 + 0.3531831857846221 edge_1_6_0_0
   + 0.5056810837063026 edge_1_7_0_0 + 0.0737332913985602 edge_1_8_0_0
   + 0.8835419705563843 edge_1_10_0_0 - 1.142003890280732 edge_2_1_0_0
   + 2.2203777795696 edge_2_3_0_0 - 0.2475231488570368 edge_2_4_0_0
   + 0.1369083330876486 edge_2_5_0_0 + 0.890547645522326 edge_2_6_0_0
   + 0.376002519121522 edge_2_7_0_0 + 0.3267930840896002 edge_2_10_0_0
   + 0.2060398646862256 edge_2_11_0_0 + 0.0905438678402699 edge_2_12_0_0
   + 0.6867785651543309 edge_2_13_0_0 + 0.20614317563232 edge_2_14_0_0
   + 0.8101718239511216 edge_2_15_0_0 + 0.9065058807979061 edge_2_16_0_0
   + 0.1634196581038404 edge_2_17_0_0 - 0.8588153826350546 edge_2_21_0_0
   + 1.4980896748656 edge_2_22_0_0 + 0.4773604375375 edge_3_1_0_0
   + 3.7279225019205 edge_3_2_0_0 + 0.7890926019766501 edge_3_4_0_0
   + 0.58814749847754 edge_3_5_0_0 + 3.2425067250649 edge_3_6_0_0
   + 1.0840878643427 edge_3_7_0_0 - 0.0644328069352 edge_3_8_0_0
   - 0.030585361069875 edge_3_9_0_0 + 1.2880805266548 edge_3_10_0_0
   + 0.6843312746793599 edge_3_11_0_0 - 0.18632048075873 edge_3_12_0_0
   + 0.38819670341868 edge_3_13_0_0 + 0.150671 edge_3_14_0_0
   + 1.5368792729976 edge_3_15_0_0 + 1.4778198106014 edge_3_16_0_0
   + 0.19614052841924 edge_3_17_0_0 - 0.21641423741146 edge_3_18_0_0
   - 0.80555336175069 edge_3_19_0_0 - 0.38615266390716 edge_3_21_0_0
   + 2.863748109925 edge_3_22_0_0 + 0.33304820446852 edge_4_3_0_0
   + 0.6482880062322351 edge_4_5_0_0 + 0.5180302362237384 edge_4_6_0_0
   - 0.1915484679047225 edge_4_10_0_0 - 0.9234186134125046 edge_5_1_0_0
   - 0.36469913285616 edge_5_3_0_0 + 0.3212551597244634 edge_5_4_0_0
   - 0.3038444741292712 edge_6_1_0_0 + 1.157027324415222 edge_6_2_0_0
   + 0.5815184126658101 edge_6_3_0_0 + 3.310970553031953 edge_6_4_0_0
   + 3.077680079182781 edge_6_5_0_0 + 0.1814754075712519 edge_6_7_0_0
   - 0.889601162837418 edge_6_8_0_0 - 0.8150834330278511 edge_6_9_0_0
   + 0.6760450856941089 edge_6_10_0_0 - 0.4893926835307957 edge_6_11_0_0
   - 0.9212804249899383 edge_6_12_0_0 + 0.1463784144843227 edge_6_13_0_0
   - 0.62617858672186 edge_6_14_0_0 + 0.5386926742958803 edge_6_15_0_0
   - 0.2342266797146894 edge_6_16_0_0 - 0.849019688284856 edge_6_17_0_0
   - 1.347644447685078 edge_6_21_0_0 + 1.0644392974696 edge_6_22_0_0
   + 0.1603314207714788 edge_7_1_0_0 + 0.4774950972368258 edge_7_2_0_0
   + 2.0228660149461 edge_7_3_0_0 + 0.9527591708017477 edge_7_4_0_0
   + 0.3571889893133092 edge_7_5_0_0 + 1.481490302971355 edge_7_6_0_0
   + 0.217495256310301 edge_7_8_0_0 + 0.2871855055560895 edge_7_9_0_0
   + 1.415652786262229 edge_7_10_0_0 + 1.461422518608767 edge_7_11_0_0
   + 0.2633164240980288 edge_7_12_0_0 + 0.9717308385358592 edge_7_13_0_0
   + 0.57343353102447 edge_7_14_0_0 + 1.489865311278197 edge_7_15_0_0
   + 2.08862999837272 edge_7_16_0_0 - 0.0577521196005313 edge_7_17_0_0
   - 1.046192402257007 edge_7_18_0_0 - 0.5338991614924707 edge_7_19_0_0
   - 0.1077690423474384 edge_7_21_0_0 + 2.9508198308275 edge_7_22_0_0
   - 0.5350203046645464 edge_8_6_0_0 + 0.4060445526628554 edge_8_7_0_0
   + 0.00606049380828421 edge_8_9_0_0 + 0.320705208473308 edge_8_10_0_0
   + 1.146609817591651 edge_8_11_0_0 - 0.539314101333 edge_8_14_0_0
   - 1.086879853475739 edge_9_6_0_0 + 0.2937117049398859 edge_9_8_0_0
   - 0.00764210807591762 edge_9_10_0_0 - 0.1180663746347188 edge_10_7_0_0
   - 0.5406228005910918 edge_10_9_0_0 - 0.1393174541502914 edge_10_11_0_0
   - 1.043423330187612 edge_10_12_0_0 - 1.460706741699594 edge_11_1_0_0
   - 0.9478343603147427 edge_11_2_0_0 + 0.7034927827778736 edge_11_3_0_0
   + 0.1426091907566651 edge_11_4_0_0 + 0.3893178857125053 edge_11_5_0_0
   + 0.4610517597680477 edge_11_6_0_0 + 0.7028966574259989 edge_11_7_0_0
   + 1.832406229164512 edge_11_8_0_0 + 2.929557264677793 edge_11_9_0_0
   + 1.392751136910591 edge_11_10_0_0 + 1.399871401899385 edge_11_12_0_0
   + 2.342487420790882 edge_11_13_0_0 + 2.648313427145545 edge_11_14_0_0
   + 2.018276422020946 edge_11_15_0_0 + 1.420549485313091 edge_11_16_0_0
   + 1.083619495894399 edge_11_17_0_0 - 0.2518067237901764 edge_11_18_0_0
   + 0.118987822010801 edge_11_19_0_0 + 0.2103136212262822 edge_11_20_0_0
   + 1.34068896464445 edge_11_21_0_0 + 2.842222679455793 edge_11_22_0_0
   - 0.7436765933451107 edge_12_11_0_0 + 1.322538199655299 edge_12_13_0_0
   + 1.7422981721016 edge_12_14_0_0 + 0.6233186664863199 edge_12_15_0_0
   + 0.8020864994935074 edge_12_16_0_0 + 0.17588531859159 edge_12_17_0_0
   - 0.8342383493009545 edge_12_18_0_0 + 0.00335151976332538 edge_12_19_0_0
   - 0.1025401818493617 edge_12_21_0_0 - 1.132075295489484 edge_13_2_0_0
   - 0.8568121382378999 edge_13_3_0_0 - 0.3397043970404743 edge_13_4_0_0
   - 0.3712469210884421 edge_13_5_0_0 - 0.4628861484490204 edge_13_6_0_0
   - 0.0402010955125175 edge_13_7_0_0 - 1.026619326860237 edge_13_9_0_0
   + 0.4037487564224495 edge_13_10_0_0 + 0.4892923724891675 edge_13_11_0_0
   + 1.998334028494252 edge_13_12_0_0 + 2.1852127013652 edge_13_14_0_0
   + 1.179031477457912 edge_13_15_0_0 + 1.751198533415363 edge_13_16_0_0
   + 0.234618418759044 edge_13_17_0_0 - 0.3412681743498506 edge_13_19_0_0
   + 0.2580772450657825 edge_13_21_0_0 + 1.3594154595372 edge_13_22_0_0
   - 0.71514970235 edge_14_1_0_0 - 0.50561928555408 edge_14_2_0_0
   - 0.530198 edge_14_3_0_0 - 1.0340788454056 edge_14_4_0_0
   - 0.20833084232949 edge_14_5_0_0 + 0.61865659168638 edge_14_6_0_0
   + 0.41718080045724 edge_14_7_0_0 + 0.662218302085 edge_14_8_0_0
   + 1.2041352461595 edge_14_9_0_0 + 0.73170540263624 edge_14_10_0_0
   + 0.98932999165604 edge_14_11_0_0 + 2.9883444531872 edge_14_12_0_0
   + 3.61962099689 edge_14_13_0_0 + 2.0401089032786 edge_14_15_0_0
   + 2.594682742654086 edge_14_16_0_0 + 1.825747943162967 edge_14_17_0_0
   - 0.041104946364603 edge_14_18_0_0 - 0.47069503099821 edge_14_19_0_0
   - 0.6437040386336231 edge_14_20_0_0 + 1.09738299491971 edge_14_21_0_0
   + 2.901198085208 edge_14_22_0_0 - 0.5897531612494999 edge_15_14_0_0
   - 0.1166079837036114 edge_15_16_0_0 - 0.3013738277640677 edge_16_15_0_0
   - 0.1940465752308067 edge_16_17_0_0 - 0.5682085659837194 edge_16_18_0_0
   - 0.8725860347931705 edge_16_19_0_0 - 1.273640722465411 edge_16_21_0_0
   - 1.586553992535111 edge_17_2_0_0 - 2.115569892950076 edge_17_3_0_0
   + 0.0322034089145625 edge_17_12_0_0 + 0.0125712892723673 edge_17_13_0_0
   - 0.493222602995477 edge_17_14_0_0 + 0.1251581465112719 edge_17_16_0_0
   + 0.6349347135709921 edge_17_18_0_0 + 0.1330163448487474 edge_17_19_0_0
   + 0.5406092752455471 edge_17_20_0_0 + 1.675425975081669 edge_17_21_0_0
   + 1.3068967942528 edge_17_22_0_0 - 1.411126214798965 edge_18_1_0_0
   - 0.6078262967831064 edge_18_7_0_0 - 1.377022614504073 edge_18_8_0_0
   - 0.3420639472929886 edge_18_12_0_0 - 0.1334221155803658 edge_18_13_0_0
   + 0.4495414085005288 edge_18_15_0_0 + 0.4293740886750428 edge_18_16_0_0
   + 1.336926723343426 edge_18_17_0_0 + 0.6825421146994013 edge_18_19_0_0
   + 1.059467145604804 edge_18_21_0_0 + 1.408090486091466 edge_18_22_0_0
   - 0.00921599706632227 edge_19_17_0_0 - 0.0136961173929508 edge_19_18_0_0
   + 0.5012532691507254 edge_19_20_0_0 + 0.8292666043255014 edge_19_21_0_0
   + 0.3507003049053289 edge_20_19_0_0 - 2.382133522410295 edge_21_2_0_0
   - 1.997615647919866 edge_21_3_0_0 - 0.619134744667019 edge_21_7_0_0
   - 1.416033848764333 edge_21_8_0_0 - 2.054637407045703 edge_21_9_0_0
   - 1.009316317865457 edge_21_10_0_0 - 1.291344143985055 edge_21_11_0_0
   + 0.2992115845230996 edge_21_12_0_0 - 0.3909603414561181 edge_21_13_0_0
   - 0.5626484479585954 edge_21_14_0_0 - 0.579706682071775 edge_21_15_0_0
   + 0.462561813116749 edge_21_17_0_0 + 0.4456265318808164 edge_21_18_0_0
   + 3.156794233202061 edge_21_19_0_0 + 3.864610300404141 edge_21_20_0_0
   + 0.9731655653591029 edge_21_22_0_0
Subject To
 one_parent_1: edge_0_1_0_0 + edge_2_1_0_0 + edge_3_1_0_0 + edge_5_1_0_0
   + edge_6_1_0_0 + edge_7_1_0_0 + edge_11_1_0_0 + edge_14_1_0_0
   + edge_18_1_0_0 = 1
 consume_one_flow_unit_1: flow_0_1_0_0 - flow_1_3_0_0 - flow_1_6_0_0
   - flow_1_7_0_0 - flow_1_8_0_0 - flow_1_10_0_0 + flow_2_1_0_0
   + flow_3_1_0_0 + flow_5_1_0_0 + flow_6_1_0_0 + flow_7_1_0_0
   + flow_11_1_0_0 + flow_14_1_0_0 + flow_18_1_0_0 = 1
 one_parent_2: edge_0_2_0_0 + edge_3_2_0_0 + edge_6_2_0_0 + edge_7_2_0_0
   + edge_11_2_0_0 + edge_13_2_0_0 + edge_14_2_0_0 + edge_17_2_0_0
   + edge_21_2_0_0 = 1
 consume_one_flow_unit_2: flow_0_2_0_0 - flow_2_1_0_0 - flow_2_3_0_0
   - flow_2_4_0_0 - flow_2_5_0_0 - flow_2_6_0_0 - flow_2_7_0_0
   - flow_2_10_0_0 - flow_2_11_0_0 - flow_2_12_0_0 - flow_2_13_0_0
   - flow_2_14_0_0 - flow_2_15_0_0 - flow_2_16_0_0 - flow_2_17_0_0
   - flow_2_21_0_0 - flow_2_22_0_0 + flow_3_2_0_0 + flow_6_2_0_0
   + flow_7_2_0_0 + flow_11_2_0_0 + flow_13_2_0_0 + flow_14_2_0_0
   + flow_17_2_0_0 + flow_21_2_0_0 = 1
 one_parent_3: edge_0_3_0_0 + edge_1_3_0_0 + edge_2_3_0_0 + edge_4_3_0_0
   + edge_5_3_0_0 + edge_6_3_0_0 + edge_7_3_0_0 + edge_11_3_0_0
   + edge_13_3_0_0 + edge_14_3_0_0 + edge_17_3_0_0 + edge_21_3_0_0 = 1
 consume_one_flow_unit_3: flow_0_3_0_0 + flow_1_3_0_0 + flow_2_3_0_0
   - flow_3_1_0_0 - flow_3_2_0_0 - flow_3_4_0_0 - flow_3_5_0_0
   - flow_3_6_0_0 - flow_3_7_0_0 - flow_3_8_0_0 - flow_3_9_0_0
   - flow_3_10_0_0 - flow_3_11_0_0 - flow_3_12_0_0 - flow_3_13_0_0
   - flow_3_14_0_0 - flow_3_15_0_0 - flow_3_16_0_0 - flow_3_17_0_0
   - flow_3_18_0_0 - flow_3_19_0_0 - flow_3_21_0_0 - flow_3_22_0_0
   + flow_4_3_0_0 + flow_5_3_0_0 + flow_6_3_0_0 + flow_7_3_0_0
   + flow_11_3_0_0 + flow_13_3_0_0 + flow_14_3_0_0 + flow_17_3_0_0
   + flow_21_3_0_0 = 1
 one_parent_4: edge_2_4_0_0 + edge_3_4_0_0 + edge_5_4_0_0 + edge_6_4_0_0
   + edge_7_4_0_0 + edge_11_4_0_0 + edge_13_4_0_0 + edge_14_4_0_0 = 1
 consume_one_flow_unit_4: flow_2_4_0_0 + flow_3_4_0_0 - flow_4_3_0_0
   - flow_4_5_0_0 - flow_4_6_0_0 - flow_4_10_0_0 + flow_5_4_0_0
   + flow_6_4_0_0 + flow_7_4_0_0 + flow_11_4_0_0 + flow_13_4_0_0
   + flow_14_4_0_0 = 1
 one_parent_5: edge_2_5_0_0 + edge_3_5_0_0 + edge_4_5_0_0 + edge_6_5_0_0
   + edge_7_5_0_0 + edge_11_5_0_0 + edge_13_5_0_0 + edge_14_5_0_0 = 1
 consume_one_flow_unit_5: flow_2_5_0_0 + flow_3_5_0_0 + flow_4_5_0_0
   - flow_5_1_0_0 - flow_5_3_0_0 - flow_5_4_0_0 + flow_6_5_0_0
   + flow_7_5_0_0 + flow_11_5_0_0 + flow_13_5_0_0 + flow_14_5_0_0 = 1
 one_parent_6: edge_0_6_0_0 + edge_1_6_0_0 + edge_2_6_0_0 + edge_3_6_0_0
   + edge_4_6_0_0 + edge_7_6_0_0 + edge_8_6_0_0 + edge_9_6_0_0
   + edge_11_6_0_0 + edge_13_6_0_0 + edge_14_6_0_0 = 1
 consume_one_flow_unit_6: flow_0_6_0_0 + flow_1_6_0_0 + flow_2_6_0_0
   + flow_3_6_0_0 + flow_4_6_0_0 - flow_6_1_0_0 - flow_6_2_0_0
   - flow_6_3_0_0 - flow_6_4_0_0 - flow_6_5_0_0 - flow_6_7_0_0
   - flow_6_8_0_0 - flow_6_9_0_0 - flow_6_10_0_0 - flow_6_11_0_0
   - flow_6_12_0_0 - flow_6_13_0_0 - flow_6_14_0_0 - flow_6_15_0_0
   - flow_6_16_0_0 - flow_6_17_0_0 - flow_6_21_0_0 - flow_6_22_0_0
   + flow_7_6_0_0 + flow_8_6_0_0 + flow_9_6_0_0 + flow_11_6_0_0
   + flow_13_6_0_0 + flow_14_6_0_0 = 1
 one_parent_7: edge_0_7_0_0 + edge_1_7_0_0 + edge_2_7_0_0 + edge_3_7_0_0
   + edge_6_7_0_0 + edge_8_7_0_0 + edge_10_7_0_0 + edge_11_7_0_0
   + edge_13_7_0_0 + edge_14_7_0_0 + edge_18_7_0_0 + edge_21_7_0_0 = 1
 consume_one_flow_unit_7: flow_0_7_0_0 + flow_1_7_0_0 + flow_2_7_0_0
   + flow_3_7_0_0 + flow_6_7_0_0 - flow_7_1_0_0 - flow_7_2_0_0
   - flow_7_3_0_0 - flow_7_4_0_0 - flow_7_5_0_0 - flow_7_6_0_0
   - flow_7_8_0_0 - flow_7_9_0_0 - flow_7_10_0_0 - flow_7_11_0_0
   - flow_7_12_0_0 - flow_7_13_0_0 - flow_7_14_0_0 - flow_7_15_0_0
   - flow_7_16_0_0 - flow_7_17_0_0 - flow_7_18_0_0 - flow_7_19_0_0
   - flow_7_21_0_0 - flow_7_22_0_0 + flow_8_7_0_0 + flow_10_7_0_0
   + flow_11_7_0_0 + flow_13_7_0_0 + flow_14_7_0_0 + flow_18_7_0_0
   + flow_21_7_0_0 = 1
 one_parent_8: edge_1_8_0_0 + edge_3_8_0_0 + edge_6_8_0_0 + edge_7_8_0_0
   + edge_9_8_0_0 + edge_11_8_0_0 + edge_14_8_0_0 + edge_18_8_0_0
   + edge_21_8_0_0 = 1
 consume_one_flow_unit_8: flow_1_8_0_0 + flow_3_8_0_0 + flow_6_8_0_0
   + flow_7_8_0_0 - flow_8_6_0_0 - flow_8_7_0_0 - flow_8_9_0_0
   - flow_8_10_0_0 - flow_8_11_0_0 - flow_8_14_0_0 + flow_9_8_0_0
   + flow_11_8_0_0 + flow_14_8_0_0 + flow_18_8_0_0 + flow_21_8_0_0 = 1
 one_parent_9: edge_3_9_0_0 + edge_6_9_0_0 + edge_7_9_0_0 + edge_8_9_0_0
   + edge_10_9_0_0 + edge_11_9_0_0 + edge_13_9_0_0 + edge_14_9_0_0
   + edge_21_9_0_0 = 1
 consume_one_flow_unit_9: flow_3_9_0_0 + flow_6_9_0_0 + flow_7_9_0_0
   + flow_8_9_0_0 - flow_9_6_0_0 - flow_9_8_0_0 - flow_9_10_0_0
   + flow_10_9_0_0 + flow_11_9_0_0 + flow_13_9_0_0 + flow_14_9_0_0
   + flow_21_9_0_0 = 1
 one_parent_10: edge_0_10_0_0 + edge_1_10_0_0 + edge_2_10_0_0
   + edge_3_10_0_0 + edge_4_10_0_0 + edge_6_10_0_0 + edge_7_10_0_0
   + edge_8_10_0_0 + edge_9_10_0_0 + edge_11_10_0_0 + edge_13_10_0_0
   + edge_14_10_0_0 + edge_21_10_0_0 = 1
 consume_one_flow_unit_10: flow_0_10_0_0 + flow_1_10_0_0 + flow_2_10_0_0
   + flow_3_10_0_0 + flow_4_10_0_0 + flow_6_10_0_0 + flow_7_10_0_0
   + flow_8_10_0_0 + flow_9_10_0_0 - flow_10_7_0_0 - flow_10_9_0_0
   - flow_10_11_0_0 - flow_10_12_0_0 + flow_11_10_0_0 + flow_13_10_0_0
   + flow_14_10_0_0 + flow_21_10_0_0 = 1
 one_parent_11: edge_0_11_0_0 + edge_2_11_0_0 + edge_3_11_0_0
   + edge_6_11_0_0 + edge_7_11_0_0 + edge_8_11_0_0 + edge_10_11_0_0
   + edge_12_11_0_0 + edge_13_11_0_0 + edge_14_11_0_0 + edge_21_11_0_0 = 1
 consume_one_flow_unit_11: flow_0_11_0_0 + flow_2_11_0_0 + flow_3_11_0_0
   + flow_6_11_0_0 + flow_7_11_0_0 + flow_8_11_0_0 + flow_10_11_0_0
   - flow_11_1_0_0 - flow_11_2_0_0 - flow_11_3_0_0 - flow_11_4_0_0
   - flow_11_5_0_0 - flow_11_6_0_0 - flow_11_7_0_0 - flow_11_8_0_0
   - flow_11_9_0_0 - flow_11_10_0_0 - flow_11_12_0_0 - flow_11_13_0_0
   - flow_11_14_0_0 - flow_11_15_0_0 - flow_11_16_0_0 - flow_11_17_0_0
   - flow_11_18_0_0 - flow_11_19_0_0 - flow_11_20_0_0 - flow_11_21_0_0
   - flow_11_22_0_0 + flow_12_11_0_0 + flow_13_11_0_0 + flow_14_11_0_0
   + flow_21_11_0_0 = 1
 one_parent_12: edge_2_12_0_0 + edge_3_12_0_0 + edge_6_12_0_0
   + edge_7_12_0_0 + edge_10_12_0_0 + edge_11_12_0_0 + edge_13_12_0_0
   + edge_14_12_0_0 + edge_17_12_0_0 + edge_18_12_0_0 + edge_21_12_0_0 = 1
 consume_one_flow_unit_12: flow_2_12_0_0 + flow_3_12_0_0 + flow_6_12_0_0
   + flow_7_12_0_0 + flow_10_12_0_0 + flow_11_12_0_0 - flow_12_11_0_0
   - flow_12_13_0_0 - flow_12_14_0_0 - flow_12_15_0_0 - flow_12_16_0_0
   - flow_12_17_0_0 - flow_12_18_0_0 - flow_12_19_0_0 - flow_12_21_0_0
   + flow_13_12_0_0 + flow_14_12_0_0 + flow_17_12_0_0 + flow_18_12_0_0
   + flow_21_12_0_0 = 1
 one_parent_13: edge_0_13_0_0 + edge_2_13_0_0 + edge_3_13_0_0
   + edge_6_13_0_0 + edge_7_13_0_0 + edge_11_13_0_0 + edge_12_13_0_0
   + edge_14_13_0_0 + edge_17_13_0_0 + edge_18_13_0_0 + edge_21_13_0_0 = 1
 consume_one_flow_unit_13: flow_0_13_0_0 + flow_2_13_0_0 + flow_3_13_0_0
   + flow_6_13_0_0 + flow_7_13_0_0 + flow_11_13_0_0 + flow_12_13_0_0
   - flow_13_2_0_0 - flow_13_3_0_0 - flow_13_4_0_0 - flow_13_5_0_0
   - flow_13_6_0_0 - flow_13_7_0_0 - flow_13_9_0_0 - flow_13_10_0_0
   - flow_13_11_0_0 - flow_13_12_0_0 - flow_13_14_0_0 - flow_13_15_0_0
   - flow_13_16_0_0 - flow_13_17_0_0 - flow_13_19_0_0 - flow_13_21_0_0
   - flow_13_22_0_0 + flow_14_13_0_0 + flow_17_13_0_0 + flow_18_13_0_0
   + flow_21_13_0_0 = 1
 one_parent_14: edge_0_14_0_0 + edge_2_14_0_0 + edge_3_14_0_0
   + edge_6_14_0_0 + edge_7_14_0_0 + edge_8_14_0_0 + edge_11_14_0_0
   + edge_12_14_0_0 + edge_13_14_0_0 + edge_15_14_0_0 + edge_17_14_0_0
   + edge_21_14_0_0 = 1
 consume_one_flow_unit_14: flow_0_14_0_0 + flow_2_14_0_0 + flow_3_14_0_0
   + flow_6_14_0_0 + flow_7_14_0_0 + flow_8_14_0_0 + flow_11_14_0_0
   + flow_12_14_0_0 + flow_13_14_0_0 - flow_14_1_0_0 - flow_14_2_0_0
   - flow_14_3_0_0 - flow_14_4_0_0 - flow_14_5_0_0 - flow_14_6_0_0
   - flow_14_7_0_0 - flow_14_8_0_0 - flow_14_9_0_0 - flow_14_10_0_0
   - flow_14_11_0_0 - flow_14_12_0_0 - flow_14_13_0_0 - flow_14_15_0_0
   - flow_14_16_0_0 - flow_14_17_0_0 - flow_14_18_0_0 - flow_14_19_0_0
   - flow_14_20_0_0 - flow_14_21_0_0 - flow_14_22_0_0 + flow_15_14_0_0
   + flow_17_14_0_0 + flow_21_14_0_0 = 1
 one_parent_15: edge_2_15_0_0 + edge_3_15_0_0 + edge_6_15_0_0
   + edge_7_15_0_0 + edge_11_15_0_0 + edge_12_15_0_0 + edge_13_15_0_0
   + edge_14_15_0_0 + edge_16_15_0_0 + edge_18_15_0_0 + edge_21_15_0_0 = 1
 consume_one_flow_unit_15: flow_2_15_0_0 + flow_3_15_0_0 + flow_6_15_0_0
   + flow_7_15_0_0 + flow_11_15_0_0 + flow_12_15_0_0 + flow_13_15_0_0
   + flow_14_15_0_0 - flow_15_14_0_0 - flow_15_16_0_0 + flow_16_15_0_0
   + flow_18_15_0_0 + flow_21_15_0_0 = 1
 one_parent_16: edge_2_16_0_0 + edge_3_16_0_0 + edge_6_16_0_0
   + edge_7_16_0_0 + edge_11_16_0_0 + edge_12_16_0_0 + edge_13_16_0_0
   + edge_14_16_0_0 + edge_15_16_0_0 + edge_17_16_0_0 + edge_18_16_0_0 = 1
 consume_one_flow_unit_16: flow_2_16_0_0 + flow_3_16_0_0 + flow_6_16_0_0
   + flow_7_16_0_0 + flow_11_16_0_0 + flow_12_16_0_0 + flow_13_16_0_0
   + flow_14_16_0_0 + flow_15_16_0_0 - flow_16_15_0_0 - flow_16_17_0_0
   - flow_16_18_0_0 - flow_16_19_0_0 - flow_16_21_0_0 + flow_17_16_0_0
   + flow_18_16_0_0 = 1
 one_parent_17: edge_2_17_0_0 + edge_3_17_0_0 + edge_6_17_0_0
   + edge_7_17_0_0 + edge_11_17_0_0 + edge_12_17_0_0 + edge_13_17_0_0
   + edge_14_17_0_0 + edge_16_17_0_0 + edge_18_17_0_0 + edge_19_17_0_0
   + edge_21_17_0_0 = 1
 consume_one_flow_unit_17: flow_2_17_0_0 + flow_3_17_0_0 + flow_6_17_0_0
   + flow_7_17_0_0 + flow_11_17_0_0 + flow_12_17_0_0 + flow_13_17_0_0
   + flow_14_17_0_0 + flow_16_17_0_0 - flow_17_2_0_0 - flow_17_3_0_0
   - flow_17_12_0_0 - flow_17_13_0_0 - flow_17_14_0_0 - flow_17_16_0_0
   - flow_17_18_0_0 - flow_17_19_0_0 - flow_17_20_0_0 - flow_17_21_0_0
   - flow_17_22_0_0 + flow_18_17_0_0 + flow_19_17_0_0 + flow_21_17_0_0 = 1
 one_parent_18: edge_3_18_0_0 + edge_7_18_0_0 + edge_11_18_0_0
   + edge_12_18_0_0 + edge_14_18_0_0 + edge_16_18_0_0 + edge_17_18_0_0
   + edge_19_18_0_0 + edge_21_18_0_0 = 1
 consume_one_flow_unit_18: flow_3_18_0_0 + flow_7_18_0_0 + flow_11_18_0_0
   + flow_12_18_0_0 + flow_14_18_0_0 + flow_16_18_0_0 + flow_17_18_0_0
   - flow_18_1_0_0 - flow_18_7_0_0 - flow_18_8_0_0 - flow_18_12_0_0
   - flow_18_13_0_0 - flow_18_15_0_0 - flow_18_16_0_0 - flow_18_17_0_0
   - flow_18_19_0_0 - flow_18_21_0_0 - flow_18_22_0_0 + flow_19_18_0_0
   + flow_21_18_0_0 = 1
 one_parent_19: edge_3_19_0_0 + edge_7_19_0_0 + edge_11_19_0_0
   + edge_12_19_0_0 + edge_13_19_0_0 + edge_14_19_0_0 + edge_16_19_0_0
   + edge_17_19_0_0 + edge_18_19_0_0 + edge_20_19_0_0 + edge_21_19_0_0 = 1
 consume_one_flow_unit_19: flow_3_19_0_0 + flow_7_19_0_0 + flow_11_19_0_0
   + flow_12_19_0_0 + flow_13_19_0_0 + flow_14_19_0_0 + flow_16_19_0_0
   + flow_17_19_0_0 + flow_18_19_0_0 - flow_19_17_0_0 - flow_19_18_0_0
   - flow_19_20_0_0 - flow_19_21_0_0 + flow_20_19_0_0 + flow_21_19_0_0 = 1
 one_parent_20: edge_11_20_0_0 + edge_14_20_0_0 + edge_17_20_0_0
   + edge_19_20_0_0 + edge_21_20_0_0 = 1
 consume_one_flow_unit_20: flow_11_20_0_0 + flow_14_20_0_0 + flow_17_20_0_0
   + flow_19_20_0_0 - flow_20_19_0_0 + flow_21_20_0_0 = 1
 one_parent_21: edge_0_21_0_0 + edge_2_21_0_0 + edge_3_21_0_0
   + edge_6_21_0_0 + edge_7_21_0_0 + edge_11_21_0_0 + edge_12_21_0_0
   + edge_13_21_0_0 + edge_14_21_0_0 + edge_16_21_0_0 + edge_17_21_0_0
   + edge_18_21_0_0 + edge_19_21_0_0 = 1
 consume_one_flow_unit_21: flow_0_21_0_0 + flow_2_21_0_0 + flow_3_21_0_0
   + flow_6_21_0_0 + flow_7_21_0_0 + flow_11_21_0_0 + flow_12_21_0_0
   + flow_13_21_0_0 + flow_14_21_0_0 + flow_16_21_0_0 + flow_17_21_0_0
   + flow_18_21_0_0 + flow_19_21_0_0 - flow_21_2_0_0 - flow_21_3_0_0
   - flow_21_7_0_0 - flow_21_8_0_0 - flow_21_9_0_0 - flow_21_10_0_0
   - flow_21_11_0_0 - flow_21_12_0_0 - flow_21_13_0_0 - flow_21_14_0_0
   - flow_21_15_0_0 - flow_21_17_0_0 - flow_21_18_0_0 - flow_21_19_0_0
   - flow_21_20_0_0 - flow_21_22_0_0 = 1
 one_parent_22: edge_2_22_0_0 + edge_3_22_0_0 + edge_6_22_0_0
   + edge_7_22_0_0 + edge_11_22_0_0 + edge_13_22_0_0 + edge_14_22_0_0
   + edge_17_22_0_0 + edge_18_22_0_0 + edge_21_22_0_0 = 1
 consume_one_flow_unit_22: flow_2_22_0_0 + flow_3_22_0_0 + flow_6_22_0_0
   + flow_7_22_0_0 + flow_11_22_0_0 + flow_13_22_0_0 + flow_14_22_0_0
   + flow_17_22_0_0 + flow_18_22_0_0 + flow_21_22_0_0 = 1
 root_flow: flow_0_1_0_0 + flow_0_2_0_0 + flow_0_3_0_0 + flow_0_6_0_0
   + flow_0_7_0_0 + flow_0_10_0_0 + flow_0_11_0_0 + flow_0_13_0_0
   + flow_0_14_0_0 + flow_0_21_0_0 = 22
 inactive_no_flow_0_1_0_0: flow_0_1_0_0 - 1000 edge_0_1_0_0 <= 0
 inactive_no_flow_0_2_0_0: flow_0_2_0_0 - 1000 edge_0_2_0_0 <= 0
 inactive_no_flow_0_3_0_0: flow_0_3_0_0 - 1000 edge_0_3_0_0 <= 0
 inactive_no_flow_0_6_0_0: flow_0_6_0_0 - 1000 edge_0_6_0_0 <= 0
 inactive_no_flow_0_7_0_0: flow_0_7_0_0 - 1000 edge_0_7_0_0 <= 0
 inactive_no_flow_0_10_0_0: flow_0_10_0_0 - 1000 edge_0_10_0_0 <= 0
 inactive_no_flow_0_11_0_0: flow_0_11_0_0 - 1000 edge_0_11_0_0 <= 0
 inactive_no_flow_0_13_0_0: flow_0_13_0_0 - 1000 edge_0_13_0_0 <= 0
 inactive_no_flow_0_14_0_0: flow_0_14_0_0 - 1000 edge_0_14_0_0 <= 0
 inactive_no_flow_0_21_0_0: flow_0_21_0_0 - 1000 edge_0_21_0_0 <= 0
 inactive_no_flow_1_3_0_0: flow_1_3_0_0 - 1000 edge_1_3_0_0 <= 0
 inactive_no_flow_1_6_0_0: flow_1_6_0_0 - 1000 edge_1_6_0_0 <= 0
 inactive_no_flow_1_7_0_0: flow_1_7_0_0 - 1000 edge_1_7_0_0 <= 0
 inactive_no_flow_1_8_0_0: flow_1_8_0_0 - 1000 edge_1_8_0_0 <= 0
 inactive_no_flow_1_10_0_0: flow_1_10_0_0 - 1000 edge_1_10_0_0 <= 0
 inactive_no_flow_2_1_0_0: flow_2_1_0_0 - 1000 edge_2_1_0_0 <= 0
 inactive_no_flow_2_3_0_0: flow_2_3_0_0 - 1000 edge_2_3_0_0 <= 0
 inactive_no_flow_2_4_0_0: flow_2_4_0_0 - 1000 edge_2_4_0_0 <= 0
 inactive_no_flow_2_5_0_0: flow_2_5_0_0 - 1000 edge_2_5_0_0 <= 0
 inactive_no_flow_2_6_0_0: flow_2_6_0_0 - 1000 edge_2_6_0_0 <= 0
 inactive_no_flow_2_7_0_0: flow_2_7_0_0 - 1000 edge_2_7_0_0 <= 0
 inactive_no_flow_2_10_0_0: flow_2_10_0_0 - 1000 edge_2_10_0_0 <= 0
 inactive_no_flow_2_11_0_0: flow_2_11_0_0 - 1000 edge_2_11_0_0 <= 0
 inactive_no_flow_2_12_0_0: flow_2_12_0_0 - 1000 edge_2_12_0_0 <= 0
 inactive_no_flow_2_13_0_0: flow_2_13_0_0 - 1000 edge_2_13_0_0 <= 0
 inactive_no_flow_2_14_0_0: flow_2_14_0_0 - 1000 edge_2_14_0_0 <= 0
 inactive_no_flow_2_15_0_0: flow_2_15_0_0 - 1000 edge_2_15_0_0 <= 0
 inactive_no_flow_2_16_0_0: flow_2_16_0_0 - 1000 edge_2_16_0_0 <= 0
 inactive_no_flow_2_17_0_0: flow_2_17_0_0 - 1000 edge_2_17_0_0 <= 0
 inactive_no_flow_2_21_0_0: flow_2_21_0_0 - 1000 edge_2_21_0_0 <= 0
 inactive_no_flow_2_22_0_0: flow_2_22_0_0 - 1000 edge_2_22_0_0 <= 0
 inactive_no_flow_3_1_0_0: flow_3_1_0_0 - 1000 edge_3_1_0_0 <= 0
 inactive_no_flow_3_2_0_0: flow_3_2_0_0 - 1000 edge_3_2_0_0 <= 0
 inactive_no_flow_3_4_0_0: flow_3_4_0_0 - 1000 edge_3_4_0_0 <= 0
 inactive_no_flow_3_5_0_0: flow_3_5_0_0 - 1000 edge_3_5_0_0 <= 0
 inactive_no_flow_3_6_0_0: flow_3_6_0_0 - 1000 edge_3_6_0_0 <= 0
 inactive_no_flow_3_7_0_0: flow_3_7_0_0 - 1000 edge_3_7_0_0 <= 0
 inactive_no_flow_3_8_0_0: flow_3_8_0_0 - 1000 edge_3_8_0_0 <= 0
 inactive_no_flow_3_9_0_0: flow_3_9_0_0 - 1000 edge_3_9_0_0 <= 0
 inactive_no_flow_3_10_0_0: flow_3_10_0_0 - 1000 edge_3_10_0_0 <= 0
 inactive_no_flow_3_11_0_0: flow_3_11_0_0 - 1000 edge_3_11_0_0 <= 0
 inactive_no_flow_3_12_0_0: flow_3_12_0_0 - 1000 edge_3_12_0_0 <= 0
 inactive_no_flow_3_13_0_0: flow_3_13_0_0 - 1000 edge_3_13_0_0 <= 0
 inactive_no_flow_3_14_0_0: flow_3_14_0_0 - 1000 edge_3_14_0_0 <= 0
 inactive_no_flow_3_15_0_0: flow_3_15_0_0 - 1000 edge_3_15_0_0 <= 0
 inactive_no_flow_3_16_0_0: flow_3_16_0_0 - 1000 edge_3_16_0_0 <= 0
 inactive_no_flow_3_17_0_0: flow_3_17_0_0 - 1000 edge_3_17_0_0 <= 0
 inactive_no_flow_3_18_0_0: flow_3_18_0_0 - 1000 edge_3_18_0_0 <= 0
 inactive_no_flow_3_19_0_0: flow_3_19_0_0 - 1000 edge_3_19_0_0 <= 0
 inactive_no_flow_3_21_0_0: flow_3_21_0_0 - 1000 edge_3_21_0_0 <= 0
 inactive_no_flow_3_22_0_0: flow_3_22_0_0 - 1000 edge_3_22_0_0 <= 0
 inactive_no_flow_4_3_0_0: flow_4_3_0_0 - 1000 edge_4_3_0_0 <= 0
 inactive_no_flow_4_5_0_0: flow_4_5_0_0 - 1000 edge_4_5_0_0 <= 0
 inactive_no_flow_4_6_0_0: flow_4_6_0_0 - 1000 edge_4_6_0_0 <= 0
 inactive_no_flow_4_10_0_0: flow_4_10_0_0 - 1000 edge_4_10_0_0 <= 0
 inactive_no_flow_5_1_0_0: flow_5_1_0_0 - 1000 edge_5_1_0_0 <= 0
 inactive_no_flow_5_3_0_0: flow_5_3_0_0 - 1000 edge_5_3_0_0 <= 0
 inactive_no_flow_5_4_0_0: flow_5_4_0_0 - 1000 edge_5_4_0_0 <= 0
 inactive_no_flow_6_1_0_0: flow_6_1_0_0 - 1000 edge_6_1_0_0 <= 0
 inactive_no_flow_6_2_0_0: flow_6_2_0_0 - 1000 edge_6_2_0_0 <= 0
 inactive_no_flow_6_3_0_0: flow_6_3_0_0 - 1000 edge_6_3_0_0 <= 0
 inactive_no_flow_6_4_0_0: flow_6_4_0_0 - 1000 edge_6_4_0_0 <= 0
 inactive_no_flow_6_5_0_0: flow_6_5_0_0 - 1000 edge_6_5_0_0 <= 0
 inactive_no_flow_6_7_0_0: flow_6_7_0_0 - 1000 edge_6_7_0_0 <= 0
 inactive_no_flow_6_8_0_0: flow_6_8_0_0 - 1000 edge_6_8_0_0 <= 0
 inactive_no_flow_6_9_0_0: flow_6_9_0_0 - 1000 edge_6_9_0_0 <= 0
 inactive_no_flow_6_10_0_0: flow_6_10_0_0 - 1000 edge_6_10_0_0 <= 0
 inactive_no_flow_6_11_0_0: flow_6_11_0_0 - 1000 edge_6_11_0_0 <= 0
 inactive_no_flow_6_12_0_0: flow_6_12_0_0 - 1000 edge_6_12_0_0 <= 0
 inactive_no_flow_6_13_0_0: flow_6_13_0_0 - 1000 edge_6_13_0_0 <= 0
 inactive_no_flow_6_14_0_0: flow_6_14_0_0 - 1000 edge_6_14_0_0 <= 0
 inactive_no_flow_6_15_0_0: flow_6_15_0_0 - 1000 edge_6_15_0_0 <= 0
 inactive_no_flow_6_16_0_0: flow_6_16_0_0 - 1000 edge_6_16_0_0 <= 0
 inactive_no_flow_6_17_0_0: flow_6_17_0_0 - 1000 edge_6_17_0_0 <= 0
 inactive_no_flow_6_21_0_0: flow_6_21_0_0 - 1000 edge_6_21_0_0 <= 0
 inactive_no_flow_6_22_0_0: flow_6_22_0_0 - 1000 edge_6_22_0_0 <= 0
 inactive_no_flow_7_1_0_0: flow_7_1_0_0 - 1000 edge_7_1_0_0 <= 0
 inactive_no_flow_7_2_0_0: flow_7_2_0_0 - 1000 edge_7_2_0_0 <= 0
 inactive_no_flow_7_3_0_0: flow_7_3_0_0 - 1000 edge_7_3_0_0 <= 0
 inactive_no_flow_7_4_0_0: flow_7_4_0_0 - 1000 edge_7_4_0_0 <= 0
 inactive_no_flow_7_5_0_0: flow_7_5_0_0 - 1000 edge_7_5_0_0 <= 0
 inactive_no_flow_7_6_0_0: flow_7_6_0_0 - 1000 edge_7_6_0_0 <= 0
 inactive_no_flow_7_8_0_0: flow_7_8_0_0 - 1000 edge_7_8_0_0 <= 0
 inactive_no_flow_7_9_0_0: flow_7_9_0_0 - 1000 edge_7_9_0_0 <= 0
 inactive_no_flow_7_10_0_0: flow_7_10_0_0 - 1000 edge_7_10_0_0 <= 0
 inactive_no_flow_7_11_0_0: flow_7_11_0_0 - 1000 edge_7_11_0_0 <= 0
 inactive_no_flow_7_12_0_0: flow_7_12_0_0 - 1000 edge_7_12_0_0 <= 0
 inactive_no_flow_7_13_0_0: flow_7_13_0_0 - 1000 edge_7_13_0_0 <= 0
 inactive_no_flow_7_14_0_0: flow_7_14_0_0 - 1000 edge_7_14_0_0 <= 0
 inactive_no_flow_7_15_0_0: flow_7_15_0_0 - 1000 edge_7_15_0_0 <= 0
 inactive_no_flow_7_16_0_0: flow_7_16_0_0 - 1000 edge_7_16_0_0 <= 0
 inactive_no_flow_7_17_0_0: flow_7_17_0_0 - 1000 edge_7_17_0_0 <= 0
 inactive_no_flow_7_18_0_0: flow_7_18_0_0 - 1000 edge_7_18_0_0 <= 0
 inactive_no_flow_7_19_0_0: flow_7_19_0_0 - 1000 edge_7_19_0_0 <= 0
 inactive_no_flow_7_21_0_0: flow_7_21_0_0 - 1000 edge_7_21_0_0 <= 0
 inactive_no_flow_7_22_0_0: flow_7_22_0_0 - 1000 edge_7_22_0_0 <= 0
 inactive_no_flow_8_6_0_0: flow_8_6_0_0 - 1000 edge_8_6_0_0 <= 0
 inactive_no_flow_8_7_0_0: flow_8_7_0_0 - 1000 edge_8_7_0_0 <= 0
 inactive_no_flow_8_9_0_0: flow_8_9_0_0 - 1000 edge_8_9_0_0 <= 0
 inactive_no_flow_8_10_0_0: flow_8_10_0_0 - 1000 edge_8_10_0_0 <= 0
 inactive_no_flow_8_11_0_0: flow_8_11_0_0 - 1000 edge_8_11_0_0 <= 0
 inactive_no_flow_8_14_0_0: flow_8_14_0_0 - 1000 edge_8_14_0_0 <= 0
 inactive_no_flow_9_6_0_0: flow_9_6_0_0 - 1000 edge_9_6_0_0 <= 0
 inactive_no_flow_9_8_0_0: flow_9_8_0_0 - 1000 edge_9_8_0_0 <= 0
 inactive_no_flow_9_10_0_0: flow_9_10_0_0 - 1000 edge_9_10_0_0 <= 0
 inactive_no_flow_10_7_0_0: flow_10_7_0_0 - 1000 edge_10_7_0_0 <= 0
 inactive_no_flow_10_9_0_0: flow_10_9_0_0 - 1000 edge_10_9_0_0 <= 0
 inactive_no_flow_10_11_0_0: flow_10_11_0_0 - 1000 edge_10_11_0_0 <= 0
 inactive_no_flow_10_12_0_0: flow_10_12_0_0 - 1000 edge_10_12_0_0 <= 0
 inactive_no_flow_11_1_0_0: flow_11_1_0_0 - 1000 edge_11_1_0_0 <= 0
 inactive_no_flow_11_2_0_0: flow_11_2_0_0 - 1000 edge_11_2_0_0 <= 0
 inactive_no_flow_11_3_0_0: flow_11_3_0_0 - 1000 edge_11_3_0_0 <= 0
 inactive_no_flow_11_4_0_0: flow_11_4_0_0 - 1000 edge_11_4_0_0 <= 0
 inactive_no_flow_11_5_0_0: flow_11_5_0_0 - 1000 edge_11_5_0_0 <= 0
 inactive_no_flow_11_6_0_0: flow_11_6_0_0 - 1000 edge_11_6_0_0 <= 0
 inactive_no_flow_11_7_0_0: flow_11_7_0_0 - 1000 edge_11_7_0_0 <= 0
 inactive_no_flow_11_8_0_0: flow_11_8_0_0 - 1000 edge_11_8_0_0 <= 0
 inactive_no_flow_11_9_0_0: flow_11_9_0_0 - 1000 edge_11_9_0_0 <= 0
 inactive_no_flow_11_10_0_0: flow_11_10_0_0 - 1000 edge_11_10_0_0 <= 0
 inactive_no_flow_11_12_0_0: flow_11_12_0_0 - 1000 edge_11_12_0_0 <= 0
 inactive_no_flow_11_13_0_0: flow_11_13_0_0 - 1000 edge_11_13_0_0 <= 0
 inactive_no_flow_11_14_0_0: flow_11_14_0_0 - 1000 edge_11_14_0_0 <= 0
 inactive_no_flow_11_15_0_0: flow_11_15_0_0 - 1000 edge_11_15_0_0 <= 0
 inactive_no_flow_11_16_0_0: flow_11_16_0_0 - 1000 edge_11_16_0_0 <= 0
 inactive_no_flow_11_17_0_0: flow_11_17_0_0 - 1000 edge_11_17_0_0 <= 0
 inactive_no_flow_11_18_0_0: flow_11_18_0_0 - 1000 edge_11_18_0_0 <= 0
 inactive_no_flow_11_19_0_0: flow_11_19_0_0 - 1000 edge_11_19_0_0 <= 0
 inactive_no_flow_11_20_0_0: flow_11_20_0_0 - 1000 edge_11_20_0_0 <= 0
 inactive_no_flow_11_21_0_0: flow_11_21_0_0 - 1000 edge_11_21_0_0 <= 0
 inactive_no_flow_11_22_0_0: flow_11_22_0_0 - 1000 edge_11_22_0_0 <= 0
 inactive_no_flow_12_11_0_0: flow_12_11_0_0 - 1000 edge_12_11_0_0 <= 0
 inactive_no_flow_12_13_0_0: flow_12_13_0_0 - 1000 edge_12_13_0_0 <= 0
 inactive_no_flow_12_14_0_0: flow_12_14_0_0 - 1000 edge_12_14_0_0 <= 0
 inactive_no_flow_12_15_0_0: flow_12_15_0_0 - 1000 edge_12_15_0_0 <= 0
 inactive_no_flow_12_16_0_0: flow_12_16_0_0 - 1000 edge_12_16_0_0 <= 0
 inactive_no_flow_12_17_0_0: flow_12_17_0_0 - 1000 edge_12_17_0_0 <= 0
 inactive_no_flow_12_18_0_0: flow_12_18_0_0 - 1000 edge_12_18_0_0 <= 0
 inactive_no_flow_12_19_0_0: flow_12_19_0_0 - 1000 edge_12_19_0_0 <= 0
 inactive_no_flow_12_21_0_0: flow_12_21_0_0 - 1000 edge_12_21_0_0 <= 0
 inactive_no_flow_13_2_0_0: flow_13_2_0_0 - 1000 edge_13_2_0_0 <= 0
 inactive_no_flow_13_3_0_0: flow_13_3_0_0 - 1000 edge_13_3_0_0 <= 0
 inactive_no_flow_13_4_0_0: flow_13_4_0_0 - 1000 edge_13_4_0_0 <= 0
 inactive_no_flow_13_5_0_0: flow_13_5_0_0 - 1000 edge_13_5_0_0 <= 0
 inactive_no_flow_13_6_0_0: flow_13_6_0_0 - 1000 edge_13_6_0_0 <= 0
 inactive_no_flow_13_7_0_0: flow_13_7_0_0 - 1000 edge_13_7_0_0 <= 0
 inactive_no_flow_13_9_0_0: flow_13_9_0_0 - 1000 edge_13_9_0_0 <= 0
 inactive_no_flow_13_10_0_0: flow_13_10_0_0 - 1000 edge_13_10_0_0 <= 0
 inactive_no_flow_13_11_0_0: flow_13_11_0_0 - 1000 edge_13_11_0_0 <= 0
 inactive_no_flow_13_12_0_0: flow_13_12_0_0 - 1000 edge_13_12_0_0 <= 0
 inactive_no_flow_13_14_0_0: flow_13_14_0_0 - 1000 edge_13_14_0_0 <= 0
 inactive_no_flow_13_15_0_0: flow_13_15_0_0 - 1000 edge_13_15_0_0 <= 0
 inactive_no_flow_13_16_0_0: flow_13_16_0_0 - 1000 edge_13_16_0_0 <= 0
 inactive_no_flow_13_17_0_0: flow_13_17_0_0 - 1000 edge_13_17_0_0 <= 0
 inactive_no_flow_13_19_0_0: flow_13_19_0_0 - 1000 edge_13_19_0_0 <= 0
 inactive_no_flow_13_21_0_0: flow_13_21_0_0 - 1000 edge_13_21_0_0 <= 0
 inactive_no_flow_13_22_0_0: flow_13_22_0_0 - 1000 edge_13_22_0_0 <= 0
 inactive_no_flow_14_1_0_0: flow_14_1_0_0 - 1000 edge_14_1_0_0 <= 0
 inactive_no_flow_14_2_0_0: flow_14_2_0_0 - 1000 edge_14_2_0_0 <= 0
 inactive_no_flow_14_3_0_0: flow_14_3_0_0 - 1000 edge_14_3_0_0 <= 0
 inactive_no_flow_14_4_0_0: flow_14_4_0_0 - 1000 edge_14_4_0_0 <= 0
 inactive_no_flow_14_5_0_0: flow_14_5_0_0 - 1000 edge_14_5_0_0 <= 0
 inactive_no_flow_14_6_0_0: flow_14_6_0_0 - 1000 edge_14_6_0_0 <= 0
 inactive_no_flow_14_7_0_0: flow_14_7_0_0 - 1000 edge_14_7_0_0 <= 0
 inactive_no_flow_14_8_0_0: flow_14_8_0_0 - 1000 edge_14_8_0_0 <= 0
 inactive_no_flow_14_9_0_0: flow_14_9_0_0 - 1000 edge_14_9_0_0 <= 0
 inactive_no_flow_14_10_0_0: flow_14_10_0_0 - 1000 edge_14_10_0_0 <= 0
 inactive_no_flow_14_11_0_0: flow_14_11_0_0 - 1000 edge_14_11_0_0 <= 0
 inactive_no_flow_14_12_0_0: flow_14_12_0_0 - 1000 edge_14_12_0_0 <= 0
 inactive_no_flow_14_13_0_0: flow_14_13_0_0 - 1000 edge_14_13_0_0 <= 0
 inactive_no_flow_14_15_0_0: flow_14_15_0_0 - 1000 edge_14_15_0_0 <= 0
 inactive_no_flow_14_16_0_0: flow_14_16_0_0 - 1000 edge_14_16_0_0 <= 0
 inactive_no_flow_14_17_0_0: flow_14_17_0_0 - 1000 edge_14_17_0_0 <= 0
 inactive_no_flow_14_18_0_0: flow_14_18_0_0 - 1000 edge_14_18_0_0 <= 0
 inactive_no_flow_14_19_0_0: flow_14_19_0_0 - 1000 edge_14_19_0_0 <= 0
 inactive_no_flow_14_20_0_0: flow_14_20_0_0 - 1000 edge_14_20_0_0 <= 0
 inactive_no_flow_14_21_0_0: flow_14_21_0_0 - 1000 edge_14_21_0_0 <= 0
 inactive_no_flow_14_22_0_0: flow_14_22_0_0 - 1000 edge_14_22_0_0 <= 0
 inactive_no_flow_15_14_0_0: flow_15_14_0_0 - 1000 edge_15_14_0_0 <= 0
 inactive_no_flow_15_16_0_0: flow_15_16_0_0 - 1000 edge_15_16_0_0 <= 0
 inactive_no_flow_16_15_0_0: flow_16_15_0_0 - 1000 edge_16_15_0_0 <= 0
 inactive_no_flow_16_17_0_0: flow_16_17_0_0 - 1000 edge_16_17_0_0 <= 0
 inactive_no_flow_16_18_0_0: flow_16_18_0_0 - 1000 edge_16_18_0_0 <= 0
 inactive_no_flow_16_19_0_0: flow_16_19_0_0 - 1000 edge_16_19_0_0 <= 0
 inactive_no_flow_16_21_0_0: flow_16_21_0_0 - 1000 edge_16_21_0_0 <= 0
 inactive_no_flow_17_2_0_0: flow_17_2_0_0 - 1000 edge_17_2_0_0 <= 0
 inactive_no_flow_17_3_0_0: flow_17_3_0_0 - 1000 edge_17_3_0_0 <= 0
 inactive_no_flow_17_12_0_0: flow_17_12_0_0 - 1000 edge_17_12_0_0 <= 0
 inactive_no_flow_17_13_0_0: flow_17_13_0_0 - 1000 edge_17_13_0_0 <= 0
 inactive_no_flow_17_14_0_0: flow_17_14_0_0 - 1000 edge_17_14_0_0 <= 0
 inactive_no_flow_17_16_0_0: flow_17_16_0_0 - 1000 edge_17_16_0_0 <= 0
 inactive_no_flow_17_18_0_0: flow_17_18_0_0 - 1000 edge_17_18_0_0 <= 0
 inactive_no_flow_17_19_0_0: flow_17_19_0_0 - 1000 edge_17_19_0_0 <= 0
 inactive_no_flow_17_20_0_0: flow_17_20_0_0 - 1000 edge_17_20_0_0 <= 0
 inactive_no_flow_17_21_0_0: flow_17_21_0_0 - 1000 edge_17_21_0_0 <= 0
 inactive_no_flow_17_22_0_0: flow_17_22_0_0 - 1000 edge_17_22_0_0 <= 0
 inactive_no_flow_18_1_0_0: flow_18_1_0_0 - 1000 edge_18_1_0_0 <= 0
 inactive_no_flow_18_7_0_0: flow_18_7_0_0 - 1000 edge_18_7_0_0 <= 0
 inactive_no_flow_18_8_0_0: flow_18_8_0_0 - 1000 edge_18_8_0_0 <= 0
 inactive_no_flow_18_12_0_0: flow_18_12_0_0 - 1000 edge_18_12_0_0 <= 0
 inactive_no_flow_18_13_0_0: flow_18_13_0_0 - 1000 edge_18_13_0_0 <= 0
 inactive_no_flow_18_15_0_0: flow_18_15_0_0 - 1000 edge_18_15_0_0 <= 0
 inactive_no_flow_18_16_0_0: flow_18_16_0_0 - 1000 edge_18_16_0_0 <= 0
 inactive_no_flow_18_17_0_0: flow_18_17_0_0 - 1000 edge_18_17_0_0 <= 0
 inactive_no_flow_18_19_0_0: flow_18_19_0_0 - 1000 edge_18_19_0_0 <= 0
 inactive_no_flow_18_21_0_0: flow_18_21_0_0 - 1000 edge_18_21_0_0 <= 0
 inactive_no_flow_18_22_0_0: flow_18_22_0_0 - 1000 edge_18_22_0_0 <= 0
 inactive_no_flow_19_17_0_0: flow_19_17_0_0 - 1000 edge_19_17_0_0 <= 0
 inactive_no_flow_19_18_0_0: flow_19_18_0_0 - 1000 edge_19_18_0_0 <= 0
 inactive_no_flow_19_20_0_0: flow_19_20_0_0 - 1000 edge_19_20_0_0 <= 0
 inactive_no_flow_19_21_0_0: flow_19_21_0_0 - 1000 edge_19_21_0_0 <= 0
 inactive_no_flow_20_19_0_0: flow_20_19_0_0 - 1000 edge_20_19_0_0 <= 0
 inactive_no_flow_21_2_0_0: flow_21_2_0_0 - 1000 edge_21_2_0_0 <= 0
 inactive_no_flow_21_3_0_0: flow_21_3_0_0 - 1000 edge_21_3_0_0 <= 0
 inactive_no_flow_21_7_0_0: flow_21_7_0_0 - 1000 edge_21_7_0_0 <= 0
 inactive_no_flow_21_8_0_0: flow_21_8_0_0 - 1000 edge_21_8_0_0 <= 0
 inactive_no_flow_21_9_0_0: flow_21_9_0_0 - 1000 edge_21_9_0_0 <= 0
 inactive_no_flow_21_10_0_0: flow_21_10_0_0 - 1000 edge_21_10_0_0 <= 0
 inactive_no_flow_21_11_0_0: flow_21_11_0_0 - 1000 edge_21_11_0_0 <= 0
 inactive_no_flow_21_12_0_0: flow_21_12_0_0 - 1000 edge_21_12_0_0 <= 0
 inactive_no_flow_21_13_0_0: flow_21_13_0_0 - 1000 edge_21_13_0_0 <= 0
 inactive_no_flow_21_14_0_0: flow_21_14_0_0 - 1000 edge_21_14_0_0 <= 0
 inactive_no_flow_21_15_0_0: flow_21_15_0_0 - 1000 edge_21_15_0_0 <= 0
 inactive_no_flow_21_17_0_0: flow_21_17_0_0 - 1000 edge_21_17_0_0 <= 0
 inactive_no_flow_21_18_0_0: flow_21_18_0_0 - 1000 edge_21_18_0_0 <= 0
 inactive_no_flow_21_19_0_0: flow_21_19_0_0 - 1000 edge_21_19_0_0 <= 0
 inactive_no_flow_21_20_0_0: flow_21_20_0_0 - 1000 edge_21_20_0_0 <= 0
 inactive_no_flow_21_22_0_0: flow_21_22_0_0 - 1000 edge_21_22_0_0 <= 0
Bounds
Binaries
 edge_0_1_0_0 edge_0_2_0_0 edge_0_3_0_0 edge_0_6_0_0 edge_0_7_0_0
 edge_0_10_0_0 edge_0_11_0_0 edge_0_13_0_0 edge_0_14_0_0 edge_0_21_0_0
 edge_1_3_0_0 edge_1_6_0_0 edge_1_7_0_0 edge_1_8_0_0 edge_1_10_0_0
 edge_2_1_0_0 edge_2_3_0_0 edge_2_4_0_0 edge_2_5_0_0 edge_2_6_0_0
 edge_2_7_0_0 edge_2_10_0_0 edge_2_11_0_0 edge_2_12_0_0 edge_2_13_0_0
 edge_2_14_0_0 edge_2_15_0_0 edge_2_16_0_0 edge_2_17_0_0 edge_2_21_0_0
 edge_2_22_0_0 edge_3_1_0_0 edge_3_2_0_0 edge_3_4_0_0 edge_3_5_0_0
 edge_3_6_0_0 edge_3_7_0_0 edge_3_8_0_0 edge_3_9_0_0 edge_3_10_0_0
 edge_3_11_0_0 edge_3_12_0_0 edge_3_13_0_0 edge_3_14_0_0 edge_3_15_0_0
 edge_3_16_0_0 edge_3_17_0_0 edge_3_18_0_0 edge_3_19_0_0 edge_3_21_0_0
 edge_3_22_0_0 edge_4_3_0_0 edge_4_5_0_0 edge_4_6_0_0 edge_4_10_0_0
 edge_5_1_0_0 edge_5_3_0_0 edge_5_4_0_0 edge_6_1_0_0 edge_6_2_0_0
 edge_6_3_0_0 edge_6_4_0_0 edge_6_5_0_0 edge_6_7_0_0 edge_6_8_0_0
 edge_6_9_0_0 edge_6_10_0_0 edge_6_11_0_0 edge_6_12_0_0 edge_6_13_0_0
 edge_6_14_0_0 edge_6_15_0_0 edge_6_16_0_0 edge_6_17_0_0 edge_6_21_0_0
 edge_6_22_0_0 edge_7_1_0_0 edge_7_2_0_0 edge_7_3_0_0 edge_7_4_0_0
 edge_7_5_0_0 edge_7_6_0_0 edge_7_8_0_0 edge_7_9_0_0 edge_7_10_0_0
 edge_7_11_0_0 edge_7_12_0_0 edge_7_13_0_0 edge_7_14_0_0 edge_7_15_0_0
 edge_7_16_0_0 edge_7_17_0_0 edge_7_18_0_0 edge_7_19_0_0 edge_7_21_0_0
 edge_7_22_0_0 edge_8_6_0_0 edge_8_7_0_0 edge_8_9_0_0 edge_8_10_0_0
 edge_8_11_0_0 edge_8_14_0_0 edge_9_6_0_0 edge_9_8_0_0 edge_9_10_0_0
 edge_10_7_0_0 edge_10_9_0_0 edge_10_11_0_0 edge_10_12_0_0 edge_11_1_0_0
 edge_11_2_0_0 edge_11_3_0_0 edge_11_4_0_0 edge_11_5_0_0 edge_11_6_0_0
 edge_11_7_0_0 edge_11_8_0_0 edge_11_9_0_0 edge_11_10_0_0 edge_11_12_0_0
 edge_11_13_0_0 edge_11_14_0_0 edge_11_15_0_0 edge_11_16_0_0 edge_11_17_0_0
 edge_11_18_0_0 edge_11_19_0_0 edge_11_20_0_0 edge_11_21_0_0 edge_11_22_0_0
 edge_12_11_0_0 edge_12_13_0_0 edge_12_14_0_0 edge_12_15_0_0 edge_12_16_0_0
 edge_12_17_0_0 edge_12_18_0_0 edge_12_19_0_0 edge_12_21_0_0 edge_13_2_0_0
 edge_13_3_0_0 edge_13_4_0_0 edge_13_5_0_0 edge_13_6_0_0 edge_13_7_0_0
 edge_13_9_0_0 edge_13_10_0_0 edge_13_11_0_0 edge_13_12_0_0 edge_13_14_0_0
 edge_13_15_0_0 edge_13_16_0_0 edge_13_17_0_0 edge_13_19_0_0 edge_13_21_0_0
 edge_13_22_0_0 edge_14_1_0_0 edge_14_2_0_0 edge_14_3_0_0 edge_14_4_0_0
 edge_14_5_0_0 edge_14_6_0_0 edge_14_7_0_0 edge_14_8_0_0 edge_14_9_0_0
 edge_14_10_0_0 edge_14_11_0_0 edge_14_12_0_0 edge_14_13_0_0 edge_14_15_0_0
 edge_14_16_0_0 edge_14_17_0_0 edge_14_18_0_0 edge_14_19_0_0 edge_14_20_0_0
 edge_14_21_0_0 edge_14_22_0_0 edge_15_14_0_0 edge_15_16_0_0 edge_16_15_0_0
 edge_16_17_0_0 edge_16_18_0_0 edge_16_19_0_0 edge_16_21_0_0 edge_17_2_0_0
 edge_17_3_0_0 edge_17_12_0_0 edge_17_13_0_0 edge_17_14_0_0 edge_17_16_0_0
 edge_17_18_0_0 edge_17_19_0_0 edge_17_20_0_0 edge_17_21_0_0 edge_17_22_0_0
 edge_18_1_0_0 edge_18_7_0_0 edge_18_8_0_0 edge_18_12_0_0 edge_18_13_0_0
 edge_18_15_0_0 edge_18_16_0_0 edge_18_17_0_0 edge_18_19_0_0 edge_18_21_0_0
 edge_18_22_0_0 edge_19_17_0_0 edge_19_18_0_0 edge_19_20_0_0 edge_19_21_0_0
 edge_20_19_0_0 edge_21_2_0_0 edge_21_3_0_0 edge_21_7_0_0 edge_21_8_0_0
 edge_21_9_0_0 edge_21_10_0_0 edge_21_11_0_0 edge_21_12_0_0 edge_21_13_0_0
 edge_21_14_0_0 edge_21_15_0_0 edge_21_17_0_0 edge_21_18_0_0 edge_21_19_0_0
 edge_21_20_0_0 edge_21_22_0_0
End
